p tw 62 538
0 1
0 2
0 3
0 4
0 5
0 20
0 32
0 33
0 34
0 17
0 30
0 37
0 40
0 24
0 41
0 11
0 14
0 18
0 26
0 35
0 45
1 2
1 3
1 4
1 5
1 10
1 18
1 19
1 39
1 24
1 40
1 41
1 6
1 47
1 48
1 55
1 57
1 21
1 26
1 27
1 16
1 29
1 51
1 9
1 11
1 23
1 43
1 44
2 3
2 4
2 5
2 23
2 27
2 30
2 34
2 44
2 16
2 29
2 51
3 4
3 5
3 25
3 38
3 41
3 43
3 50
3 11
3 23
3 28
3 30
3 46
4 5
4 18
4 19
4 20
4 21
4 9
4 29
4 44
4 48
4 49
4 12
4 22
4 24
4 28
4 55
4 7
4 10
4 31
4 36
4 6
4 30
4 34
4 51
4 58
4 59
4 60
4 40
4 43
4 46
4 54
5 18
5 19
5 20
5 21
5 32
5 33
5 34
5 24
5 40
5 41
5 9
5 17
5 52
5 51
5 58
5 59
5 60
5 22
5 42
5 48
5 13
5 37
5 54
6 7
6 8
6 9
6 10
6 11
6 30
6 34
6 36
6 55
6 47
6 48
6 57
7 8
7 9
7 10
7 11
7 23
7 33
7 44
7 47
7 56
7 22
7 31
7 36
8 9
8 10
8 11
8 36
8 37
8 39
8 45
8 61
9 10
9 11
9 32
9 35
9 36
9 37
9 38
9 29
9 44
9 48
9 49
9 17
9 41
9 52
9 23
9 43
10 11
10 26
10 27
10 28
10 29
10 17
10 21
10 30
10 31
10 18
10 19
10 39
10 22
10 36
10 15
10 20
10 50
10 57
10 40
10 38
10 46
10 52
11 25
11 32
11 35
11 49
11 51
11 14
11 18
11 26
11 23
11 43
11 44
11 28
11 30
11 46
12 13
12 14
12 15
12 16
12 17
12 37
12 45
12 47
12 53
12 54
12 22
12 24
12 28
12 55
13 14
13 15
13 16
13 17
13 22
13 23
13 24
13 25
13 21
13 36
13 46
13 47
13 33
13 37
13 54
13 59
14 15
14 16
14 17
14 21
14 30
14 46
14 47
14 50
14 18
14 26
14 32
15 16
15 17
15 21
15 36
15 46
15 47
15 20
15 29
15 50
15 57
16 17
16 22
16 23
16 24
16 25
16 29
16 51
17 21
17 30
17 31
17 37
17 40
17 32
17 41
17 52
18 19
18 20
18 21
18 39
18 26
18 32
18 30
18 40
19 20
19 21
19 39
19 29
19 45
19 46
19 49
20 21
20 32
20 33
20 34
20 29
20 50
20 57
21 30
21 31
21 46
21 47
21 50
21 36
21 26
21 27
21 39
21 40
21 43
21 54
22 23
22 24
22 25
22 28
22 55
22 31
22 36
22 32
22 45
22 53
22 56
22 33
22 42
22 48
23 24
23 25
23 33
23 44
23 47
23 56
23 27
23 30
23 34
23 43
23 28
23 46
24 25
24 40
24 41
24 28
24 55
25 32
25 35
25 49
25 51
25 38
25 41
25 43
25 50
26 27
26 28
26 29
26 32
26 35
26 42
26 43
26 44
26 39
27 28
27 29
27 30
27 34
27 44
27 39
28 29
28 55
28 30
28 46
29 44
29 48
29 49
29 51
29 50
29 57
29 45
29 46
30 31
30 37
30 40
30 42
30 45
30 46
30 47
30 48
30 50
30 34
30 44
30 36
30 55
30 39
31 36
31 32
31 45
31 53
31 56
32 33
32 34
32 35
32 36
32 37
32 38
32 42
32 43
32 44
32 49
32 51
32 41
32 52
32 45
32 53
32 56
32 48
33 34
33 44
33 47
33 56
33 42
33 48
33 37
33 54
33 59
34 44
34 36
34 55
34 35
34 37
34 40
34 45
34 39
34 49
34 51
34 54
35 36
35 37
35 38
35 42
35 43
35 44
35 49
35 51
35 40
35 45
36 37
36 38
36 46
36 47
36 55
36 39
36 45
36 61
37 38
37 40
37 45
37 47
37 53
37 54
37 43
37 48
37 52
37 39
37 61
37 59
38 41
38 43
38 50
38 46
38 52
39 45
39 61
39 49
39 51
39 54
39 55
39 40
40 41
40 45
40 43
40 46
40 54
41 52
41 43
41 50
42 43
42 44
42 45
42 46
42 47
42 48
43 44
43 50
43 48
43 52
43 46
43 54
44 48
44 49
44 47
44 56
45 46
45 47
45 48
45 53
45 54
45 56
45 49
45 61
46 47
46 48
46 50
46 49
46 52
46 54
47 48
47 50
47 53
47 54
47 56
47 55
47 57
48 49
48 55
48 57
48 52
49 51
49 54
49 55
50 57
51 58
51 59
51 60
51 54
51 55
53 54
53 56
54 55
54 59
55 57
58 59
58 60
59 60
